0 230.0 136.67
1 230.0 130.0
2 223.33 130.0
3 216.67 130.0
4 210.0 130.0
5 200.0 130.0
6 190.0 130.0
7 180.0 130.0
8 170.0 130.0
9 160.0 130.0
10 150.0 130.0
11 140.0 130.0
12 130.0 130.0
13 120.0 130.0
14 110.0 130.0
15 100.0 130.0
16 90.0 130.0
17 80.0 130.0
18 70.0 130.0
19 60.0 130.0
20 50.0 130.0
21 43.33 130.0
22 36.67 130.0
23 30.0 130.0
24 30.0 123.33
25 30.0 116.67
26 30.0 110.0
27 36.67 110.0
28 43.33 110.0
29 50.0 110.0
30 60.0 110.0
31 70.0 110.0
32 80.0 110.0
33 90.0 110.0
34 100.0 110.0
35 110.0 110.0
36 120.0 110.0
37 130.0 110.0
38 140.0 110.0
39 150.0 110.0
40 160.0 110.0
41 170.0 110.0
42 180.0 110.0
43 190.0 110.0
44 200.0 110.0
45 210.0 110.0
46 220.0 110.0
47 230.0 110.0
48 240.0 110.0
49 250.0 110.0
50 260.0 110.0
51 270.0 110.0
52 280.0 110.0
53 290.0 110.0
54 300.0 110.0
55 310.0 110.0
56 320.0 110.0
57 330.0 110.0
58 340.0 110.0
59 350.0 110.0
60 360.0 110.0
61 370.0 110.0
62 380.0 110.0
63 390.0 110.0
64 400.0 110.0
65 410.0 110.0
66 420.0 110.0
67 430.0 110.0
68 440.0 110.0
69 450.0 110.0
70 460.0 110.0
71 470.0 110.0
72 480.0 110.0
73 490.0 110.0
74 496.67 110.0
75 503.33 110.0
76 510.0 110.0
77 510.0 103.33
78 510.0 96.67
79 510.0 90.0
80 503.33 90.0
81 496.67 90.0
82 490.0 90.0
83 480.0 90.0
84 470.0 90.0
85 460.0 90.0
86 450.0 90.0
87 440.0 90.0
88 430.0 90.0
89 420.0 90.0
90 410.0 90.0
91 400.0 90.0
92 390.0 90.0
93 380.0 90.0
94 370.0 90.0
95 360.0 90.0
96 350.0 90.0
97 340.0 90.0
98 330.0 90.0
99 320.0 90.0
100 310.0 90.0
101 300.0 90.0
102 290.0 90.0
103 280.0 90.0
104 270.0 90.0
105 260.0 90.0
106 250.0 90.0
107 240.0 90.0
108 230.0 90.0
109 220.0 90.0
110 210.0 90.0
111 200.0 90.0
112 190.0 90.0
113 180.0 90.0
114 170.0 90.0
115 160.0 90.0
116 150.0 90.0
117 140.0 90.0
118 130.0 90.0
119 120.0 90.0
120 110.0 90.0
121 100.0 90.0
122 90.0 90.0
123 80.0 90.0
124 70.0 90.0
125 50.0 90.0
126 50.0 90.0
127 40.0 90.0
128 30.0 90.0
129 23.33 90.0
130 16.67 90.0
131 10.0 90.0
132 10.0 96.67
133 10.0 103.33
134 10.0 110.0
135 10.0 120.0
136 10.0 130.0
137 10.0 136.67
138 10.0 143.33
139 10.0 150.0
140 16.67 150.0
141 23.33 150.0
142 30.0 150.0
143 40.0 150.0
144 50.0 150.0
145 60.0 150.0
146 70.0 150.0
147 80.0 150.0
148 90.0 150.0
149 100.0 150.0
150 110.0 150.0
151 120.0 150.0
152 130.0 150.0
153 140.0 150.0
154 150.0 150.0
155 160.0 150.0
156 170.0 150.0
157 180.0 150.0
158 190.0 150.0
159 200.0 150.0
160 210.0 150.0
161 216.67 150.0
162 223.33 150.0
163 230.0 150.0
0 230.0 143.33
